nK = 1465;
nT = 8;
nI = 21;
L = 29;
TT = 320;
np = 1;
nc = 3;
b = [25, 20, 46, 64, 33, 52, 64, 63, 32, 38, 42, 34, 64, 53, 39, 42, 46, 52, 32, 61, 39];
d = [66, 68, 77, 124, 121, 116, 143, 116, 136, 63, 93, 54, 144, 118, 65, 120, 109, 126, 137, 98, 85];
m = [1.9, 2.5, 1.7, 1.6, 2.5, 1.4, 2, 2.5, 2.2, 1.1, 2.3, 2.2, 1.5, 1.8, 1.1, 1.8, 2.1, 1, 1.3, 1.3, 2];
pt = [0.33, 0.23, 0.26, 0.21, 0.29, 0.31, 0.32, 0.33];
st = [16.83, 11.27, 14.82, 12.39, 14.5, 14.57, 13.76, 17.82];
arc = {<1, 0, 1, 1, 0, 0, 0, [1, 1, 1, 1, 1, 1, 1, 1]>, <2, 1, 2, 1, 0, 0, 0, [1, 1, 1, 1, 1, 1, 1, 1]>, <3, 2, 3, 1, 0, 0, 0, [1, 1, 1, 1, 1, 1, 1, 1]>, <4, 3, 4, 1, 0, 0, 0, [1, 1, 1, 1, 1, 1, 1, 1]>, <5, 4, 5, 1, 0, 0, 0, [1, 1, 1, 1, 1, 1, 1, 1]>, <6, 5, 6, 1, 0, 0, 0, [1, 1, 1, 1, 1, 1, 1, 1]>, <7, 6, 7, 1, 0, 0, 0, [1, 1, 1, 1, 1, 1, 1, 1]>, <8, 7, 8, 1, 0, 0, 0, [1, 1, 1, 1, 1, 1, 1, 1]>, <9, 8, 9, 1, 0, 0, 0, [1, 1, 1, 1, 1, 1, 1, 1]>, <10, 9, 10, 1, 0, 0, 0, [1, 1, 1, 1, 1, 1, 1, 1]>, <11, 10, 11, 1, 0, 0, 0, [1, 1, 1, 1, 1, 1, 1, 1]>, <12, 11, 12, 1, 0, 0, 0, [1, 1, 1, 1, 1, 1, 1, 1]>, <13, 12, 13, 1, 0, 0, 0, [1, 1, 1, 1, 1, 1, 1, 1]>, <14, 13, 14, 1, 0, 0, 0, [1, 1, 1, 1, 1, 1, 1, 1]>, <15, 14, 15, 1, 0, 0, 0, [1, 1, 1, 1, 1, 1, 1, 1]>, <16, 15, 16, 1, 0, 0, 0, [1, 1, 1, 1, 1, 1, 1, 1]>, <17, 16, 17, 1, 0, 0, 0, [1, 1, 1, 1, 1, 1, 1, 1]>, <18, 17, 18, 1, 0, 0, 0, [1, 1, 1, 1, 1, 1, 1, 1]>, <19, 18, 19, 1, 0, 0, 0, [1, 1, 1, 1, 1, 1, 1, 1]>, <20, 19, 20, 1, 0, 0, 0, [1, 1, 1, 1, 1, 1, 1, 1]>, <21, 20, 21, 1, 0, 0, 0, [1, 1, 1, 1, 1, 1, 1, 1]>, <22, 21, 22, 1, 0, 0, 0, [1, 1, 1, 1, 1, 1, 1, 1]>, <23, 22, 23, 1, 0, 0, 0, [1, 1, 1, 1, 1, 1, 1, 1]>, <24, 23, 24, 1, 0, 0, 0, [1, 1, 1, 1, 1, 1, 1, 1]>, <25, 24, 25, 1, 0, 0, 0, [1, 1, 1, 1, 1, 1, 1, 1]>, <26, 25, 26, 1, 0, 0, 0, [1, 1, 1, 1, 1, 1, 1, 1]>, <27, 26, 27, 1, 0, 0, 0, [1, 1, 1, 1, 1, 1, 1, 1]>, <28, 27, 28, 1, 0, 0, 0, [1, 1, 1, 1, 1, 1, 1, 1]>, <29, 28, 29, 1, 0, 0, 0, [1, 1, 1, 1, 1, 1, 1, 1]>, <30, 3, 12, 9, 1, 0, 0, [1, 1, 1, 1, 0, 0, 0, 0]>, <31, 4, 13, 9, 1, 0, 0, [1, 1, 1, 1, 0, 0, 0, 0]>, <32, 5, 14, 9, 1, 0, 0, [1, 1, 1, 1, 0, 0, 0, 0]>, <33, 11, 20, 9, 1, 0, 0, [1, 1, 1, 1, 0, 0, 0, 0]>, <34, 12, 21, 9, 1, 0, 0, [1, 1, 1, 1, 0, 0, 0, 0]>, <35, 15, 24, 9, 1, 0, 0, [1, 1, 1, 1, 0, 0, 0, 0]>, <36, 16, 25, 9, 1, 0, 0, [1, 1, 1, 1, 0, 0, 0, 0]>, <37, 17, 26, 9, 1, 0, 0, [1, 1, 1, 1, 0, 0, 0, 0]>, <38, 18, 27, 9, 1, 0, 0, [1, 1, 1, 1, 0, 0, 0, 0]>, <39, 19, 28, 9, 1, 0, 0, [1, 1, 1, 1, 0, 0, 0, 0]>, <40, 20, 29, 9, 1, 0, 0, [1, 1, 1, 1, 0, 0, 0, 0]>, <41, 1, 12, 11, 2, 0, 1, [0, 0, 0, 1, 1, 1, 1, 0]>, <42, 2, 13, 11, 2, 0, 1, [0, 0, 0, 1, 1, 1, 1, 0]>, <43, 3, 14, 11, 2, 0, 1, [0, 0, 0, 1, 1, 1, 1, 0]>, <44, 4, 15, 11, 2, 0, 1, [0, 0, 0, 1, 1, 1, 1, 0]>, <45, 5, 16, 11, 2, 0, 1, [0, 0, 0, 1, 1, 1, 1, 0]>, <46, 9, 20, 11, 2, 0, 1, [0, 0, 0, 1, 1, 1, 1, 0]>, <47, 10, 21, 11, 2, 0, 1, [0, 0, 0, 1, 1, 1, 1, 0]>, <48, 11, 22, 11, 2, 0, 1, [0, 0, 0, 1, 1, 1, 1, 0]>, <49, 12, 23, 11, 2, 0, 1, [0, 0, 0, 1, 1, 1, 1, 0]>, <50, 13, 24, 11, 2, 0, 1, [0, 0, 0, 1, 1, 1, 1, 0]>, <51, 14, 25, 11, 2, 0, 1, [0, 0, 0, 1, 1, 1, 1, 0]>, <52, 15, 26, 11, 2, 0, 1, [0, 0, 0, 1, 1, 1, 1, 0]>, <53, 16, 27, 11, 2, 0, 1, [0, 0, 0, 1, 1, 1, 1, 0]>, <54, 17, 28, 11, 2, 0, 1, [0, 0, 0, 1, 1, 1, 1, 0]>, <55, 18, 29, 11, 2, 0, 1, [0, 0, 0, 1, 1, 1, 1, 0]>, <56, 0, 12, 12, 3, 1, 0, [1, 1, 0, 0, 0, 0, 1, 1]>, <57, 1, 13, 12, 3, 1, 0, [1, 1, 0, 0, 0, 0, 1, 1]>, <58, 2, 14, 12, 3, 1, 0, [1, 1, 0, 0, 0, 0, 1, 1]>, <59, 3, 15, 12, 3, 1, 0, [1, 1, 0, 0, 0, 0, 1, 1]>, <60, 4, 16, 12, 3, 1, 0, [1, 1, 0, 0, 0, 0, 1, 1]>, <61, 5, 17, 12, 3, 1, 0, [1, 1, 0, 0, 0, 0, 1, 1]>, <62, 8, 20, 12, 3, 1, 0, [1, 1, 0, 0, 0, 0, 1, 1]>, <63, 9, 21, 12, 3, 1, 0, [1, 1, 0, 0, 0, 0, 1, 1]>, <64, 10, 22, 12, 3, 1, 0, [1, 1, 0, 0, 0, 0, 1, 1]>, <65, 11, 23, 12, 3, 1, 0, [1, 1, 0, 0, 0, 0, 1, 1]>, <66, 12, 24, 12, 3, 1, 0, [1, 1, 0, 0, 0, 0, 1, 1]>, <67, 13, 25, 12, 3, 1, 0, [1, 1, 0, 0, 0, 0, 1, 1]>, <68, 14, 26, 12, 3, 1, 0, [1, 1, 0, 0, 0, 0, 1, 1]>, <69, 15, 27, 12, 3, 1, 0, [1, 1, 0, 0, 0, 0, 1, 1]>, <70, 16, 28, 12, 3, 1, 0, [1, 1, 0, 0, 0, 0, 1, 1]>, <71, 17, 29, 12, 3, 1, 0, [1, 1, 0, 0, 0, 0, 1, 1]>, <72, 3, 12, 9, 4, 0, 0, [1, 0, 0, 0, 0, 1, 1, 1]>, <73, 4, 13, 9, 4, 0, 0, [1, 0, 0, 0, 0, 1, 1, 1]>, <74, 5, 14, 9, 4, 0, 0, [1, 0, 0, 0, 0, 1, 1, 1]>, <75, 11, 20, 9, 4, 0, 0, [1, 0, 0, 0, 0, 1, 1, 1]>, <76, 12, 21, 9, 4, 0, 0, [1, 0, 0, 0, 0, 1, 1, 1]>, <77, 15, 24, 9, 4, 0, 0, [1, 0, 0, 0, 0, 1, 1, 1]>, <78, 16, 25, 9, 4, 0, 0, [1, 0, 0, 0, 0, 1, 1, 1]>, <79, 17, 26, 9, 4, 0, 0, [1, 0, 0, 0, 0, 1, 1, 1]>, <80, 18, 27, 9, 4, 0, 0, [1, 0, 0, 0, 0, 1, 1, 1]>, <81, 19, 28, 9, 4, 0, 0, [1, 0, 0, 0, 0, 1, 1, 1]>, <82, 20, 29, 9, 4, 0, 0, [1, 0, 0, 0, 0, 1, 1, 1]>, <83, 2, 12, 10, 5, 0, 1, [0, 1, 1, 1, 1, 0, 0, 0]>, <84, 3, 13, 10, 5, 0, 1, [0, 1, 1, 1, 1, 0, 0, 0]>, <85, 4, 14, 10, 5, 0, 1, [0, 1, 1, 1, 1, 0, 0, 0]>, <86, 5, 15, 10, 5, 0, 1, [0, 1, 1, 1, 1, 0, 0, 0]>, <87, 10, 20, 10, 5, 0, 1, [0, 1, 1, 1, 1, 0, 0, 0]>, <88, 11, 21, 10, 5, 0, 1, [0, 1, 1, 1, 1, 0, 0, 0]>, <89, 12, 22, 10, 5, 0, 1, [0, 1, 1, 1, 1, 0, 0, 0]>, <90, 14, 24, 10, 5, 0, 1, [0, 1, 1, 1, 1, 0, 0, 0]>, <91, 15, 25, 10, 5, 0, 1, [0, 1, 1, 1, 1, 0, 0, 0]>, <92, 16, 26, 10, 5, 0, 1, [0, 1, 1, 1, 1, 0, 0, 0]>, <93, 17, 27, 10, 5, 0, 1, [0, 1, 1, 1, 1, 0, 0, 0]>, <94, 18, 28, 10, 5, 0, 1, [0, 1, 1, 1, 1, 0, 0, 0]>, <95, 19, 29, 10, 5, 0, 1, [0, 1, 1, 1, 1, 0, 0, 0]>, <96, 1, 12, 11, 6, 0, 1, [0, 0, 1, 1, 1, 1, 0, 0]>, <97, 2, 13, 11, 6, 0, 1, [0, 0, 1, 1, 1, 1, 0, 0]>, <98, 3, 14, 11, 6, 0, 1, [0, 0, 1, 1, 1, 1, 0, 0]>, <99, 4, 15, 11, 6, 0, 1, [0, 0, 1, 1, 1, 1, 0, 0]>, <100, 5, 16, 11, 6, 0, 1, [0, 0, 1, 1, 1, 1, 0, 0]>, <101, 9, 20, 11, 6, 0, 1, [0, 0, 1, 1, 1, 1, 0, 0]>, <102, 10, 21, 11, 6, 0, 1, [0, 0, 1, 1, 1, 1, 0, 0]>, <103, 11, 22, 11, 6, 0, 1, [0, 0, 1, 1, 1, 1, 0, 0]>, <104, 12, 23, 11, 6, 0, 1, [0, 0, 1, 1, 1, 1, 0, 0]>, <105, 13, 24, 11, 6, 0, 1, [0, 0, 1, 1, 1, 1, 0, 0]>, <106, 14, 25, 11, 6, 0, 1, [0, 0, 1, 1, 1, 1, 0, 0]>, <107, 15, 26, 11, 6, 0, 1, [0, 0, 1, 1, 1, 1, 0, 0]>, <108, 16, 27, 11, 6, 0, 1, [0, 0, 1, 1, 1, 1, 0, 0]>, <109, 17, 28, 11, 6, 0, 1, [0, 0, 1, 1, 1, 1, 0, 0]>, <110, 18, 29, 11, 6, 0, 1, [0, 0, 1, 1, 1, 1, 0, 0]>, <111, 4, 12, 8, 7, 0, 1, [1, 1, 0, 0, 0, 0, 1, 1]>, <112, 5, 13, 8, 7, 0, 1, [1, 1, 0, 0, 0, 0, 1, 1]>, <113, 11, 19, 8, 7, 0, 1, [1, 1, 0, 0, 0, 0, 1, 1]>, <114, 12, 20, 8, 7, 0, 1, [1, 1, 0, 0, 0, 0, 1, 1]>, <115, 16, 24, 8, 7, 0, 1, [1, 1, 0, 0, 0, 0, 1, 1]>, <116, 17, 25, 8, 7, 0, 1, [1, 1, 0, 0, 0, 0, 1, 1]>, <117, 18, 26, 8, 7, 0, 1, [1, 1, 0, 0, 0, 0, 1, 1]>, <118, 19, 27, 8, 7, 0, 1, [1, 1, 0, 0, 0, 0, 1, 1]>, <119, 20, 28, 8, 7, 0, 1, [1, 1, 0, 0, 0, 0, 1, 1]>, <120, 1, 12, 11, 8, 0, 0, [0, 0, 0, 1, 1, 1, 1, 0]>, <121, 2, 13, 11, 8, 0, 0, [0, 0, 0, 1, 1, 1, 1, 0]>, <122, 3, 14, 11, 8, 0, 0, [0, 0, 0, 1, 1, 1, 1, 0]>, <123, 4, 15, 11, 8, 0, 0, [0, 0, 0, 1, 1, 1, 1, 0]>, <124, 5, 16, 11, 8, 0, 0, [0, 0, 0, 1, 1, 1, 1, 0]>, <125, 9, 20, 11, 8, 0, 0, [0, 0, 0, 1, 1, 1, 1, 0]>, <126, 10, 21, 11, 8, 0, 0, [0, 0, 0, 1, 1, 1, 1, 0]>, <127, 11, 22, 11, 8, 0, 0, [0, 0, 0, 1, 1, 1, 1, 0]>, <128, 12, 23, 11, 8, 0, 0, [0, 0, 0, 1, 1, 1, 1, 0]>, <129, 13, 24, 11, 8, 0, 0, [0, 0, 0, 1, 1, 1, 1, 0]>, <130, 14, 25, 11, 8, 0, 0, [0, 0, 0, 1, 1, 1, 1, 0]>, <131, 15, 26, 11, 8, 0, 0, [0, 0, 0, 1, 1, 1, 1, 0]>, <132, 16, 27, 11, 8, 0, 0, [0, 0, 0, 1, 1, 1, 1, 0]>, <133, 17, 28, 11, 8, 0, 0, [0, 0, 0, 1, 1, 1, 1, 0]>, <134, 18, 29, 11, 8, 0, 0, [0, 0, 0, 1, 1, 1, 1, 0]>, <135, 4, 12, 8, 9, 0, 0, [0, 0, 1, 1, 1, 1, 0, 0]>, <136, 5, 13, 8, 9, 0, 0, [0, 0, 1, 1, 1, 1, 0, 0]>, <137, 11, 19, 8, 9, 0, 0, [0, 0, 1, 1, 1, 1, 0, 0]>, <138, 12, 20, 8, 9, 0, 0, [0, 0, 1, 1, 1, 1, 0, 0]>, <139, 16, 24, 8, 9, 0, 0, [0, 0, 1, 1, 1, 1, 0, 0]>, <140, 17, 25, 8, 9, 0, 0, [0, 0, 1, 1, 1, 1, 0, 0]>, <141, 18, 26, 8, 9, 0, 0, [0, 0, 1, 1, 1, 1, 0, 0]>, <142, 19, 27, 8, 9, 0, 0, [0, 0, 1, 1, 1, 1, 0, 0]>, <143, 20, 28, 8, 9, 0, 0, [0, 0, 1, 1, 1, 1, 0, 0]>, <144, 3, 12, 9, 10, 0, 1, [0, 1, 1, 1, 1, 0, 0, 0]>, <145, 4, 13, 9, 10, 0, 1, [0, 1, 1, 1, 1, 0, 0, 0]>, <146, 5, 14, 9, 10, 0, 1, [0, 1, 1, 1, 1, 0, 0, 0]>, <147, 11, 20, 9, 10, 0, 1, [0, 1, 1, 1, 1, 0, 0, 0]>, <148, 12, 21, 9, 10, 0, 1, [0, 1, 1, 1, 1, 0, 0, 0]>, <149, 15, 24, 9, 10, 0, 1, [0, 1, 1, 1, 1, 0, 0, 0]>, <150, 16, 25, 9, 10, 0, 1, [0, 1, 1, 1, 1, 0, 0, 0]>, <151, 17, 26, 9, 10, 0, 1, [0, 1, 1, 1, 1, 0, 0, 0]>, <152, 18, 27, 9, 10, 0, 1, [0, 1, 1, 1, 1, 0, 0, 0]>, <153, 19, 28, 9, 10, 0, 1, [0, 1, 1, 1, 1, 0, 0, 0]>, <154, 20, 29, 9, 10, 0, 1, [0, 1, 1, 1, 1, 0, 0, 0]>, <155, 0, 12, 12, 11, 0, 0, [0, 0, 1, 1, 1, 1, 0, 0]>, <156, 1, 13, 12, 11, 0, 0, [0, 0, 1, 1, 1, 1, 0, 0]>, <157, 2, 14, 12, 11, 0, 0, [0, 0, 1, 1, 1, 1, 0, 0]>, <158, 3, 15, 12, 11, 0, 0, [0, 0, 1, 1, 1, 1, 0, 0]>, <159, 4, 16, 12, 11, 0, 0, [0, 0, 1, 1, 1, 1, 0, 0]>, <160, 5, 17, 12, 11, 0, 0, [0, 0, 1, 1, 1, 1, 0, 0]>, <161, 8, 20, 12, 11, 0, 0, [0, 0, 1, 1, 1, 1, 0, 0]>, <162, 9, 21, 12, 11, 0, 0, [0, 0, 1, 1, 1, 1, 0, 0]>, <163, 10, 22, 12, 11, 0, 0, [0, 0, 1, 1, 1, 1, 0, 0]>, <164, 11, 23, 12, 11, 0, 0, [0, 0, 1, 1, 1, 1, 0, 0]>, <165, 12, 24, 12, 11, 0, 0, [0, 0, 1, 1, 1, 1, 0, 0]>, <166, 13, 25, 12, 11, 0, 0, [0, 0, 1, 1, 1, 1, 0, 0]>, <167, 14, 26, 12, 11, 0, 0, [0, 0, 1, 1, 1, 1, 0, 0]>, <168, 15, 27, 12, 11, 0, 0, [0, 0, 1, 1, 1, 1, 0, 0]>, <169, 16, 28, 12, 11, 0, 0, [0, 0, 1, 1, 1, 1, 0, 0]>, <170, 17, 29, 12, 11, 0, 0, [0, 0, 1, 1, 1, 1, 0, 0]>, <171, 3, 12, 9, 12, 0, 0, [0, 1, 1, 1, 1, 0, 0, 0]>, <172, 4, 13, 9, 12, 0, 0, [0, 1, 1, 1, 1, 0, 0, 0]>, <173, 5, 14, 9, 12, 0, 0, [0, 1, 1, 1, 1, 0, 0, 0]>, <174, 11, 20, 9, 12, 0, 0, [0, 1, 1, 1, 1, 0, 0, 0]>, <175, 12, 21, 9, 12, 0, 0, [0, 1, 1, 1, 1, 0, 0, 0]>, <176, 15, 24, 9, 12, 0, 0, [0, 1, 1, 1, 1, 0, 0, 0]>, <177, 16, 25, 9, 12, 0, 0, [0, 1, 1, 1, 1, 0, 0, 0]>, <178, 17, 26, 9, 12, 0, 0, [0, 1, 1, 1, 1, 0, 0, 0]>, <179, 18, 27, 9, 12, 0, 0, [0, 1, 1, 1, 1, 0, 0, 0]>, <180, 19, 28, 9, 12, 0, 0, [0, 1, 1, 1, 1, 0, 0, 0]>, <181, 20, 29, 9, 12, 0, 0, [0, 1, 1, 1, 1, 0, 0, 0]>, <182, 4, 11, 7, 13, 0, 1, [1, 1, 0, 0, 0, 0, 1, 1]>, <183, 5, 12, 7, 13, 0, 1, [1, 1, 0, 0, 0, 0, 1, 1]>, <184, 11, 18, 7, 13, 0, 1, [1, 1, 0, 0, 0, 0, 1, 1]>, <185, 12, 19, 7, 13, 0, 1, [1, 1, 0, 0, 0, 0, 1, 1]>, <186, 17, 24, 7, 13, 0, 1, [1, 1, 0, 0, 0, 0, 1, 1]>, <187, 18, 25, 7, 13, 0, 1, [1, 1, 0, 0, 0, 0, 1, 1]>, <188, 19, 26, 7, 13, 0, 1, [1, 1, 0, 0, 0, 0, 1, 1]>, <189, 20, 27, 7, 13, 0, 1, [1, 1, 0, 0, 0, 0, 1, 1]>, <190, 3, 12, 9, 14, 0, 0, [1, 0, 0, 0, 0, 1, 1, 1]>, <191, 4, 13, 9, 14, 0, 0, [1, 0, 0, 0, 0, 1, 1, 1]>, <192, 5, 14, 9, 14, 0, 0, [1, 0, 0, 0, 0, 1, 1, 1]>, <193, 11, 20, 9, 14, 0, 0, [1, 0, 0, 0, 0, 1, 1, 1]>, <194, 12, 21, 9, 14, 0, 0, [1, 0, 0, 0, 0, 1, 1, 1]>, <195, 15, 24, 9, 14, 0, 0, [1, 0, 0, 0, 0, 1, 1, 1]>, <196, 16, 25, 9, 14, 0, 0, [1, 0, 0, 0, 0, 1, 1, 1]>, <197, 17, 26, 9, 14, 0, 0, [1, 0, 0, 0, 0, 1, 1, 1]>, <198, 18, 27, 9, 14, 0, 0, [1, 0, 0, 0, 0, 1, 1, 1]>, <199, 19, 28, 9, 14, 0, 0, [1, 0, 0, 0, 0, 1, 1, 1]>, <200, 20, 29, 9, 14, 0, 0, [1, 0, 0, 0, 0, 1, 1, 1]>, <201, 4, 12, 8, 15, 0, 0, [1, 1, 0, 0, 0, 0, 1, 1]>, <202, 5, 13, 8, 15, 0, 0, [1, 1, 0, 0, 0, 0, 1, 1]>, <203, 11, 19, 8, 15, 0, 0, [1, 1, 0, 0, 0, 0, 1, 1]>, <204, 12, 20, 8, 15, 0, 0, [1, 1, 0, 0, 0, 0, 1, 1]>, <205, 16, 24, 8, 15, 0, 0, [1, 1, 0, 0, 0, 0, 1, 1]>, <206, 17, 25, 8, 15, 0, 0, [1, 1, 0, 0, 0, 0, 1, 1]>, <207, 18, 26, 8, 15, 0, 0, [1, 1, 0, 0, 0, 0, 1, 1]>, <208, 19, 27, 8, 15, 0, 0, [1, 1, 0, 0, 0, 0, 1, 1]>, <209, 20, 28, 8, 15, 0, 0, [1, 1, 0, 0, 0, 0, 1, 1]>, <210, 4, 11, 7, 16, 0, 1, [0, 1, 1, 1, 1, 0, 0, 0]>, <211, 5, 12, 7, 16, 0, 1, [0, 1, 1, 1, 1, 0, 0, 0]>, <212, 11, 18, 7, 16, 0, 1, [0, 1, 1, 1, 1, 0, 0, 0]>, <213, 12, 19, 7, 16, 0, 1, [0, 1, 1, 1, 1, 0, 0, 0]>, <214, 17, 24, 7, 16, 0, 1, [0, 1, 1, 1, 1, 0, 0, 0]>, <215, 18, 25, 7, 16, 0, 1, [0, 1, 1, 1, 1, 0, 0, 0]>, <216, 19, 26, 7, 16, 0, 1, [0, 1, 1, 1, 1, 0, 0, 0]>, <217, 20, 27, 7, 16, 0, 1, [0, 1, 1, 1, 1, 0, 0, 0]>, <218, 4, 12, 8, 17, 0, 1, [1, 1, 0, 0, 0, 0, 1, 1]>, <219, 5, 13, 8, 17, 0, 1, [1, 1, 0, 0, 0, 0, 1, 1]>, <220, 11, 19, 8, 17, 0, 1, [1, 1, 0, 0, 0, 0, 1, 1]>, <221, 12, 20, 8, 17, 0, 1, [1, 1, 0, 0, 0, 0, 1, 1]>, <222, 16, 24, 8, 17, 0, 1, [1, 1, 0, 0, 0, 0, 1, 1]>, <223, 17, 25, 8, 17, 0, 1, [1, 1, 0, 0, 0, 0, 1, 1]>, <224, 18, 26, 8, 17, 0, 1, [1, 1, 0, 0, 0, 0, 1, 1]>, <225, 19, 27, 8, 17, 0, 1, [1, 1, 0, 0, 0, 0, 1, 1]>, <226, 20, 28, 8, 17, 0, 1, [1, 1, 0, 0, 0, 0, 1, 1]>, <227, 4, 11, 7, 18, 0, 1, [0, 1, 1, 1, 1, 0, 0, 0]>, <228, 5, 12, 7, 18, 0, 1, [0, 1, 1, 1, 1, 0, 0, 0]>, <229, 11, 18, 7, 18, 0, 1, [0, 1, 1, 1, 1, 0, 0, 0]>, <230, 12, 19, 7, 18, 0, 1, [0, 1, 1, 1, 1, 0, 0, 0]>, <231, 17, 24, 7, 18, 0, 1, [0, 1, 1, 1, 1, 0, 0, 0]>, <232, 18, 25, 7, 18, 0, 1, [0, 1, 1, 1, 1, 0, 0, 0]>, <233, 19, 26, 7, 18, 0, 1, [0, 1, 1, 1, 1, 0, 0, 0]>, <234, 20, 27, 7, 18, 0, 1, [0, 1, 1, 1, 1, 0, 0, 0]>, <235, 4, 12, 8, 19, 1, 0, [1, 1, 1, 0, 0, 0, 0, 1]>, <236, 5, 13, 8, 19, 1, 0, [1, 1, 1, 0, 0, 0, 0, 1]>, <237, 11, 19, 8, 19, 1, 0, [1, 1, 1, 0, 0, 0, 0, 1]>, <238, 12, 20, 8, 19, 1, 0, [1, 1, 1, 0, 0, 0, 0, 1]>, <239, 16, 24, 8, 19, 1, 0, [1, 1, 1, 0, 0, 0, 0, 1]>, <240, 17, 25, 8, 19, 1, 0, [1, 1, 1, 0, 0, 0, 0, 1]>, <241, 18, 26, 8, 19, 1, 0, [1, 1, 1, 0, 0, 0, 0, 1]>, <242, 19, 27, 8, 19, 1, 0, [1, 1, 1, 0, 0, 0, 0, 1]>, <243, 20, 28, 8, 19, 1, 0, [1, 1, 1, 0, 0, 0, 0, 1]>, <244, 4, 12, 8, 20, 0, 1, [1, 0, 0, 0, 0, 1, 1, 1]>, <245, 5, 13, 8, 20, 0, 1, [1, 0, 0, 0, 0, 1, 1, 1]>, <246, 11, 19, 8, 20, 0, 1, [1, 0, 0, 0, 0, 1, 1, 1]>, <247, 12, 20, 8, 20, 0, 1, [1, 0, 0, 0, 0, 1, 1, 1]>, <248, 16, 24, 8, 20, 0, 1, [1, 0, 0, 0, 0, 1, 1, 1]>, <249, 17, 25, 8, 20, 0, 1, [1, 0, 0, 0, 0, 1, 1, 1]>, <250, 18, 26, 8, 20, 0, 1, [1, 0, 0, 0, 0, 1, 1, 1]>, <251, 19, 27, 8, 20, 0, 1, [1, 0, 0, 0, 0, 1, 1, 1]>, <252, 20, 28, 8, 20, 0, 1, [1, 0, 0, 0, 0, 1, 1, 1]>, <253, 4, 12, 8, 21, 0, 0, [0, 1, 1, 1, 1, 0, 0, 0]>, <254, 5, 13, 8, 21, 0, 0, [0, 1, 1, 1, 1, 0, 0, 0]>, <255, 11, 19, 8, 21, 0, 0, [0, 1, 1, 1, 1, 0, 0, 0]>, <256, 12, 20, 8, 21, 0, 0, [0, 1, 1, 1, 1, 0, 0, 0]>, <257, 16, 24, 8, 21, 0, 0, [0, 1, 1, 1, 1, 0, 0, 0]>, <258, 17, 25, 8, 21, 0, 0, [0, 1, 1, 1, 1, 0, 0, 0]>, <259, 18, 26, 8, 21, 0, 0, [0, 1, 1, 1, 1, 0, 0, 0]>, <260, 19, 27, 8, 21, 0, 0, [0, 1, 1, 1, 1, 0, 0, 0]>, <261, 20, 28, 8, 21, 0, 0, [0, 1, 1, 1, 1, 0, 0, 0]>};
